data/MCDM/NO_CORR/GEN_FROM_60/20_ITEMS_1000_GEN/K5020W17.KNP.mps
NAME          BLANK   
ROWS
 N  OBJROW
 L  R0000000
COLUMNS
    C0000000  OBJROW     -168.         R0000000  308.        
    C0000001  OBJROW     -446.         R0000000  213.        
    C0000002  OBJROW     -964.         R0000000  68.         
    C0000003  OBJROW     -918.         R0000000  595.        
    C0000004  OBJROW     -500.         R0000000  940.        
    C0000005  OBJROW     -541.         R0000000  59.         
    C0000006  OBJROW     -737.         R0000000  945.        
    C0000007  OBJROW     -161.         R0000000  522.        
    C0000008  OBJROW     -115.         R0000000  254.        
    C0000009  OBJROW     -537.         R0000000  991.        
    C0000010  OBJROW     -274.         R0000000  604.        
    C0000011  OBJROW     -903.         R0000000  67.         
    C0000012  OBJROW     -44.          R0000000  24.         
    C0000013  OBJROW     -969.         R0000000  845.        
    C0000014  OBJROW     -374.         R0000000  505.        
    C0000015  OBJROW     -649.         R0000000  274.        
    C0000016  OBJROW     -121.         R0000000  16.         
    C0000017  OBJROW     -674.         R0000000  921.        
    C0000018  OBJROW     -667.         R0000000  79.         
    C0000019  OBJROW     -462.         R0000000  67.         
RHS
    RHS       R0000000  13735.      
BOUNDS
 BV BOUND     C0000000  1.          
 BV BOUND     C0000001  1.          
 BV BOUND     C0000002  1.          
 BV BOUND     C0000003  1.          
 BV BOUND     C0000004  1.          
 BV BOUND     C0000005  1.          
 BV BOUND     C0000006  1.          
 BV BOUND     C0000007  1.          
 BV BOUND     C0000008  1.          
 BV BOUND     C0000009  1.          
 BV BOUND     C0000010  1.          
 BV BOUND     C0000011  1.          
 BV BOUND     C0000012  1.          
 BV BOUND     C0000013  1.          
 BV BOUND     C0000014  1.          
 BV BOUND     C0000015  1.          
 BV BOUND     C0000016  1.          
 BV BOUND     C0000017  1.          
 BV BOUND     C0000018  1.          
 BV BOUND     C0000019  1.          
ENDATA
