interdiction/MCDM/NO_CORR/GEN_FROM_60/20_ITEMS_1000_GEN/K5020W17.KNP.txt
N 20
M 21
LC 20
LC 21
LC 22
LC 23
LC 24
LC 25
LC 26
LC 27
LC 28
LC 29
LC 30
LC 31
LC 32
LC 33
LC 34
LC 35
LC 36
LC 37
LC 38
LC 39
LR 1
LR 2
LR 3
LR 4
LR 5
LR 6
LR 7
LR 8
LR 9
LR 10
LR 11
LR 12
LR 13
LR 14
LR 15
LR 16
LR 17
LR 18
LR 19
LR 20
LR 21
LO -168
LO -446
LO -964
LO -918
LO -500
LO -541
LO -737
LO -161
LO -115
LO -537
LO -274
LO -903
LO -44
LO -969
LO -374
LO -649
LO -121
LO -674
LO -667
LO -462
OS 1
IC 156
IC 28
IC 814
IC 133
IC 142
IC 633
IC 495
IC 88
IC 873
IC 850
IC 711
IC 562
IC 449
IC 968
IC 424
IC 991
IC 839
IC 384
IC 438
IC 509
IB 5244
